c pcminimize - minimizing a CNF with respect to propagation completeness by iterative removing of absorbed clauses.
c Petr Kucera, 2016-2021
c Version 2.7, revision 59, git hash 4910a71, date 2024-07-16 20:17:42 +0200
p cnf 116 167
34 -76 0
76 -77 0
22 -77 0
34 -78 0
79 -80 0
-34 -80 0
78 80 -81 0
81 -82 0
-22 -82 0
85 -87 0
86 -87 0
83 -88 0
87 -88 0
17 -97 0
-34 -98 0
99 -103 0
86 -103 0
100 -103 0
101 -103 0
102 -103 0
103 -104 0
-17 -114 0
115 -116 0
1 0
-2 0
4 0
-6 0
7 0
11 0
-12 0
13 0
-18 0
21 0
26 0
-27 0
28 0
29 0
36 0
-38 0
-39 0
46 0
47 0
48 0
-49 0
50 0
-52 0
-53 0
-56 0
57 0
60 0
61 0
62 0
63 0
67 0
70 0
-71 0
72 0
75 0
-75 116 0
59 113 0
-112 113 0
-111 112 0
-109 110 0
-108 109 0
-107 108 0
-106 107 0
-40 106 0
-105 107 0
-104 105 0
-103 104 0
-37 102 0
-100 103 0
-54 100 0
33 108 0
-98 104 0
-73 98 0
24 98 0
30 98 0
44 84 0
42 84 0
41 84 0
-88 89 0
-9 98 0
-25 84 0
-31 84 0
55 98 0
-10 98 0
-24 84 0
-14 86 0
-82 83 0
-45 84 0
-80 81 0
32 84 0
-74 101 0
-92 93 0
40 84 0
-90 91 0
-22 77 0
-84 88 0
-16 98 0
51 98 0
10 84 0
9 84 0
34 80 98 0
-76 77 0
-5 84 0
-34 76 78 0
-93 94 0
22 82 98 0
-81 82 0
-83 88 0
-30 84 0
69 79 0
-89 90 0
-3 84 0
-43 84 0
-44 98 0
-51 84 0
-20 84 0
35 84 0
15 84 0
-15 98 0
-101 103 0
-79 80 0
-19 84 0
-65 98 0
-66 98 0
16 84 0
-58 84 0
-94 96 0
20 98 0
68 84 0
-55 84 0
-96 97 0
31 98 0
-64 84 0
-85 87 0
-32 98 0
-113 114 0
73 84 0
-23 99 0
8 85 0
14 86 0
-87 88 0
-102 103 0
65 84 0
19 98 0
25 98 0
-99 103 0
-91 92 0
-59 92 0
-33 93 0
-11 95 109 0
-95 96 0
3 98 0
5 98 0
-35 98 0
-41 98 0
-78 81 0
-42 98 0
43 98 0
-110 111 0
45 98 0
66 84 0
58 98 0
64 98 0
-68 98 0
